2016.24
0 3 1 2 4 7 0
0 71 5 13 8 9 6 0
0 12 18 10 11 15 0
0 14 19 22 16 17 72 0
0 25 24 23 21 20 0
0 28 30 29 27 26 0
0 31 32 33 34 0
0 37 36 41 49 39 38 35 0
0 43 42 44 40 45 0
0 48 47 51 50 46 0
0 56 55 65 53 54 52 0
0 63 61 60 57 59 58 0
0 62 64 73 68 66 0
0 70 69 74 75 67 0
0 0
